#######################################
### Exact MIP solver for the HHCRSP ###
#######################################
-- Instance file: new-instances/HHCRSP_200_40_2_1.2_C_RC.txt
-- Max threads: 4
-- Time limit: 999999 seconds
-- Use initial solution: No
Trivial flow violations prevented generating 363472 variables.
Version identifier: 20.1.0.0 | 2020-11-10 | 9bedb6d68
CPXPARAM_Threads                                 4
CPXPARAM_TimeLimit                               999999
Parallel mode: deterministic, using up to 4 threads for concurrent optimization:
 * Starting dual Simplex on 1 thread...
 * Starting Barrier on 3 threads...
Tried aggregator 1 time.
LP Presolve eliminated 21192 rows and 4865 columns.
Reduced LP has 380074 rows, 361909 columns, and 6501544 nonzeros.
Presolve time = 12.10 sec. (1511.64 ticks)
Symmetry aggregator did 557579 additional substitutions.

Iteration log . . .
Iteration:     1   Dual objective     =             0.000000
Iteration:   946   Dual objective     =           310.333333

Dual crossover.
  Dual:  Fixing 1106 variables.
     1105 DMoves:  Infeasibility  6.17617080e-13  Objective  3.14666667e+02
        0 DMoves:  Infeasibility  2.36088938e-13  Objective  3.14666667e+02
  Dual:  Pushed 27, exchanged 1079.
  Primal:  Fixing 507 variables.
      506 PMoves:  Infeasibility  5.55111512e-17  Objective  3.14666667e+02
        0 PMoves:  Infeasibility  3.46944695e-16  Objective  3.14666667e+02
  Primal:  Pushed 405, exchanged 102.

Dual simplex solved model.


Solution status from MIP model:
-- Processing time: 23.049 sec.
-- Memory used: 426.741 MB
-- Best bound: inf
-- Obj value: 314.667
-- Gap: inf%
-- Total distance: 944
-- Total tardiness: 0
-- Largest tardiness: 0
